DIMENSION: 32
EDGE_WEIGHT_TYPE: EXPLICIT
EDGE_WEIGHT_FORMAT: FULL_MATRIX
EDGE_WEIGHT_SECTION:
32767 32767 32767 32767 32767 32767 32767 76 32767 32767 41 32767 32767 32767 32767 32767 20 32767 16 90 32767 84 32767 32767 32767 64 32767 82 32767 31 32767 32767 
32767 32767 81 83 66 32767 13 48 32767 32767 32767 63 24 32767 32767 32767 51 97 32767 32767 15 31 32767 32767 32767 32767 86 32767 98 32767 32767 32767 
32767 81 32767 3 25 32767 54 32767 17 32 35 47 20 32767 32767 32767 70 32767 37 32767 32767 25 32767 32767 32767 32767 32767 32767 82 40 32767 32767 
32767 83 3 32767 32767 86 10 32767 32767 57 32767 32767 50 32767 32767 32767 32767 33 60 93 32767 32767 22 19 32767 32767 32767 32767 8 77 32767 32767 
32767 66 25 32767 32767 60 62 30 16 32767 32767 51 32767 95 32767 32767 59 32767 30 32767 16 32767 11 35 34 11 6 74 69 73 6 14 
32767 32767 32767 86 60 32767 57 1 79 32767 32767 32767 36 32767 32767 32767 32767 32767 36 17 55 32767 32767 2 32767 32767 32767 32767 32767 32767 42 60 
32767 13 54 10 62 57 32767 32767 23 32767 10 32767 32767 32767 36 32767 99 53 74 28 2 32767 73 34 32767 32767 59 32767 32767 32767 32767 32767 
76 48 32767 32767 30 1 32767 32767 32767 29 40 32767 52 33 71 32767 99 32767 32767 32767 32767 95 32767 32767 32767 7 32767 32767 32767 93 32767 74 
32767 32767 17 32767 16 79 23 32767 32767 32767 32767 32767 32767 56 38 32767 32767 76 32767 47 32767 42 32767 57 32767 32767 32767 74 32767 32767 32767 100 
32767 32767 32 57 32767 32767 32767 29 32767 32767 32767 32767 48 96 32767 74 40 52 32767 32767 32767 41 32767 49 32767 32767 32767 32767 32767 32767 46 32767 
41 32767 35 32767 32767 32767 10 40 32767 32767 32767 32767 94 32767 32767 32767 32767 71 36 32767 32767 32767 32767 99 32767 32767 32767 10 32767 32767 32767 25 
32767 63 47 32767 51 32767 32767 32767 32767 32767 32767 32767 51 32767 12 32767 32767 68 32767 32767 32767 32767 78 32767 32767 56 32767 96 28 52 32767 32767 
32767 24 20 50 32767 36 32767 52 32767 48 94 51 32767 32767 32767 32767 32767 32767 2 48 32767 15 64 32767 32767 32767 71 32767 26 22 28 39 
32767 32767 32767 32767 95 32767 32767 33 56 96 32767 32767 32767 32767 35 32767 32767 32767 3 32767 4 32767 32767 36 50 32767 32767 51 21 32767 98 32767 
32767 32767 32767 32767 32767 32767 36 71 38 32767 32767 12 32767 35 32767 32767 32767 56 32767 32767 32767 32767 6 32767 32767 32767 17 64 32767 51 32767 32767 
32767 32767 32767 32767 32767 32767 32767 32767 32767 74 32767 32767 32767 32767 32767 32767 75 32767 47 32767 32767 32767 19 32767 32767 32767 32767 19 32767 24 32767 32767 
20 51 70 32767 59 32767 99 99 32767 40 32767 32767 32767 32767 32767 75 32767 47 32767 32767 32767 32767 32767 32767 32767 55 32767 32767 12 32767 32767 32767 
32767 97 32767 33 32767 32767 53 32767 76 52 71 68 32767 32767 56 32767 47 32767 32767 76 92 32767 10 22 35 32767 32767 31 90 32767 32767 32767 
16 32767 37 60 30 36 74 32767 32767 32767 36 32767 2 3 32767 47 32767 32767 32767 32767 8 96 32767 32767 32767 67 51 73 32767 32767 32767 80 
90 32767 32767 93 32767 17 28 32767 47 32767 32767 32767 48 32767 32767 32767 32767 76 32767 32767 87 32767 32767 95 32767 32767 32767 95 32767 32767 32767 56 
32767 15 32767 32767 16 55 2 32767 32767 32767 32767 32767 32767 4 32767 32767 32767 92 8 87 32767 32767 32767 32767 32767 82 32767 32767 32767 20 33 32767 
84 31 25 32767 32767 32767 32767 95 42 41 32767 32767 15 32767 32767 32767 32767 32767 96 32767 32767 32767 43 23 6 28 5 61 32767 32767 32767 32767 
32767 32767 32767 22 11 32767 73 32767 32767 32767 32767 78 64 32767 6 19 32767 10 32767 32767 32767 43 32767 32767 32767 32767 32767 12 93 44 10 22 
32767 32767 32767 19 35 2 34 32767 57 49 99 32767 32767 36 32767 32767 32767 22 32767 95 32767 23 32767 32767 76 32767 32767 59 67 32767 32767 95 
32767 32767 32767 32767 34 32767 32767 32767 32767 32767 32767 32767 32767 50 32767 32767 32767 35 32767 32767 32767 6 32767 76 32767 69 15 32767 75 15 32767 32767 
64 32767 32767 32767 11 32767 32767 7 32767 32767 32767 56 32767 32767 32767 32767 55 32767 67 32767 82 28 32767 32767 69 32767 32767 32767 78 32767 32767 32767 
32767 86 32767 32767 6 32767 59 32767 32767 32767 32767 32767 71 32767 17 32767 32767 32767 51 32767 32767 5 32767 32767 15 32767 32767 97 32767 40 26 88 
82 32767 32767 32767 74 32767 32767 32767 74 32767 10 96 32767 51 64 19 32767 31 73 95 32767 61 12 59 32767 32767 97 32767 57 32767 32767 31 
32767 98 82 8 69 32767 32767 32767 32767 32767 32767 28 26 21 32767 32767 12 90 32767 32767 32767 32767 93 67 75 78 32767 57 32767 53 52 32767 
31 32767 40 77 73 32767 32767 93 32767 32767 32767 52 22 32767 51 24 32767 32767 32767 32767 20 32767 44 32767 15 32767 40 32767 53 32767 19 61 
32767 32767 32767 32767 6 42 32767 32767 32767 46 32767 32767 28 98 32767 32767 32767 32767 32767 32767 33 32767 10 32767 32767 32767 26 32767 52 19 32767 16 
32767 32767 32767 32767 14 60 32767 74 100 32767 25 32767 39 32767 32767 32767 32767 32767 80 56 32767 32767 22 95 32767 32767 88 31 32767 61 16 32767 
EOF